
Gurobi 9.5.1 (mac64[x86], Python) logging started Wed Apr 13 21:59:59 2022

Set parameter Username
Set parameter LogFile to value "gurobi.log"
Academic license - for non-commercial use only - expires 2022-06-11
